SECTION Graph
Nodes 80
Edges 79

E 1 67 290
E 2 30 288
E 3 16 289
E 3 21 287
E 3 77 286
E 4 32 284
E 4 33 286
E 4 51 289
E 5 23 289
E 5 49 285
E 6 35 288
E 6 46 289
E 6 58 290
E 7 71 290
E 8 28 289
E 8 70 288
E 9 71 288
E 10 13 289
E 10 30 287
E 10 67 289
E 11 21 289
E 12 73 284
E 12 78 289
E 13 26 288
E 13 61 291
E 14 66 288
E 15 64 290
E 15 66 289
E 16 80 284
E 17 78 290
E 18 28 289
E 19 35 287
E 19 54 289
E 20 48 290
E 20 67 285
E 20 69 288
E 21 24 290
E 21 39 288
E 21 53 286
E 22 40 290
E 23 71 290
E 23 78 289
E 25 54 288
E 25 75 290
E 27 28 286
E 28 37 290
E 28 44 285
E 28 52 287
E 29 39 284
E 29 41 285
E 29 67 289
E 30 55 288
E 30 59 286
E 31 32 290
E 31 72 289
E 33 68 288
E 33 80 289
E 34 60 290
E 34 80 289
E 36 44 288
E 37 42 282
E 37 56 289
E 38 50 288
E 38 67 288
E 40 62 286
E 40 67 288
E 43 52 290
E 43 57 285
E 45 68 287
E 47 62 292
E 48 65 287
E 48 79 288
E 52 53 286
E 54 63 288
E 54 80 287
E 55 66 288
E 59 76 293
E 63 78 289
E 67 74 291
END
SECTION Terminals
T 1
T 2
T 3
T 4
T 5
T 6
T 7
T 8
T 9
T 10
T 11
T 12
T 13
T 14
T 15
T 16
T 17
T 18
T 19
T 20
T 21
T 22
T 23
T 24
T 25
T 26
T 27
T 28
T 29
T 30
T 31
T 32
T 33
T 34
T 35
T 36
T 37
T 38
T 39
T 40
T 41
T 42
T 43
T 44
T 45
T 46
T 47
T 48
T 49
T 50
T 51
T 52
T 53
T 54
T 55
T 56
T 57
T 58
T 59
T 60
T 61
T 62
T 63
T 64
T 65
T 66
T 67
T 68
T 69
T 70
T 71
T 72
T 73
T 74
T 75
T 76
T 77
T 78
T 79
T 80
END
SECTION Cost
22756
END
